solution status: optimal solution found
objective value:                                    0
shell_j_$_49                                        1 	(obj:0)
shell_j_$_50                                        1 	(obj:0)
shell_i_$_39                                        1 	(obj:0)
shell_i_$_40                                        1 	(obj:0)
shell_j_$_43                                        1 	(obj:0)
shell_i_$_51                                        1 	(obj:0)
shell_j_$_76                                        1 	(obj:0)
shell_i_$_46                                        1 	(obj:0)
shell_j_$_46                                        1 	(obj:0)
shell_i_$_64                                        1 	(obj:0)
$_50_y                                              8 	(obj:0)
$_50_z                                             24 	(obj:0)
$_43_x                                              4 	(obj:0)
$_43_y                                              8 	(obj:0)
$_43_z                                             24 	(obj:0)
$_49_z                                             24 	(obj:0)
$_49_x                                              5 	(obj:0)
$_51_x                                              8 	(obj:0)
$_51_y                                              4 	(obj:0)
$_51_z                                             24 	(obj:0)
$_39_x                                              8 	(obj:0)
$_39_y                                              5 	(obj:0)
$_76_x                                              6 	(obj:0)
$_76_y                                              8 	(obj:0)
$_76_z                                             24 	(obj:0)
$_39_z                                             24 	(obj:0)
$_49_y                                              8 	(obj:0)
$_46_x                                              8 	(obj:0)
$_46_y                                              8 	(obj:0)
$_46_z                                             24 	(obj:0)
$_50_x                                              2 	(obj:0)
$_40_x                                              8 	(obj:0)
$_64_x                                              8 	(obj:0)
$_64_y                                              6 	(obj:0)
$_64_z                                             23 	(obj:0)
$_40_y                                              2 	(obj:0)
$_40_z                                             24 	(obj:0)
